40901 38704 
41198 38327 
41482 37925 
41065 38512 
40635 39093 
41036 38641 
40428 39231 
41249 38260 
41136 38398 
40830 38809 
39853 39605 
40144 39345 
40706 38979 
40096 39402 
39931 39597 
41355 37975 
40737 38887 
39835 39655 
38937 40272 
38876 40308 
38226 40694 
38416 40601 
37154 41034 
38058 40850 
38660 40563 
37690 41011 
39008 40182 
38257 40602 
39198 40089 
36953 41049 
37740 40859 
39261 40027 
39215 40044 
39314 40022 
39567 39867 
39521 39884 
39658 39765 
39485 39992 
36809 41050 
36794 41112 
39774 39729 
38785 40379 
38739 40396 
40009 39432 
39250 40038 
39652 39820 
36493 41305 
38992 40241 
39020 40129 
39062 40094 
35708 41359 
36258 41317 
36614 41273 
